Minimize
 obj: 170 x1 + 160 x2 + 175 x3 + 180 x4 + 195x5
Subject to
 c1: x1 >= 48
 c2: x1 + x2 >= 79
 c3: x1 + x2 >= 65
 c4: x1 + x2 + x3 >= 87
 c5: x2 + x3 >= 64
 c6: x3 + x4 >= 73
 c7: x3 + x4 >= 82
 c8: x4 >= 43
 c9: x4 + x5 >= 52
 c10: x5 >= 15
Bounds
End
